\ LP format - for model browsing. Use MPS format to capture full model detail.
Minimize
  - x0 + 2 x1 - 2 x2
Subject To
 constr(0): 5 x0 + 3 x1 + 4 x2 = 9
 constr(1): - 3 x0 + 2 x1 + 5 x2 <= 3
Bounds
 x0 <= 5
 x1 <= 1
 x2 <= 2
End
